Cost: 1077
0-34-1-3-4-7-32-8-36-9-37-12-39-38-10-51-14-33-0
0-31-29-26-25-24-42-21-22-20-40-41-23-27-43-30-0
Cost: 1077
0-31-29-26-25-24-42-21-22-20-40-41-23-27-43-44-30-0
0-34-1-3-4-7-32-8-36-9-37-12-39-38-10-14-33-0
Cost: 1077
0-34-1-3-4-7-32-8-36-9-37-12-39-38-10-51-14-33-0
0-31-29-26-25-24-42-21-22-20-40-41-23-27-43-30-0
Cost: 1077
0-34-1-3-4-7-32-8-36-9-37-12-39-38-10-14-33-0
0-31-29-26-25-24-42-21-22-20-40-41-23-27-43-30-46-0
Cost: 1077
0-34-1-3-4-7-32-8-36-37-9-10-12-39-38-14-33-0
0-31-29-26-25-24-42-21-22-20-40-41-23-27-49-43-30-0
Cost: 1077
0-31-29-26-25-24-42-21-22-20-40-41-23-27-43-30-0
0-34-1-3-4-7-32-8-36-9-37-10-12-39-38-14-55-33-0
Cost: 1077
0-34-1-3-4-7-32-8-36-9-37-12-39-38-10-14-33-0
0-31-29-26-25-24-42-21-22-20-40-41-23-27-43-44-30-0
Cost: 1077
0-31-46-29-26-25-24-42-21-22-20-40-41-23-27-43-30-0
0-34-1-3-4-7-32-8-36-9-37-10-12-39-38-14-33-0
Cost: 1077
0-31-29-26-25-24-42-22-20-40-41-21-23-27-49-43-30-0
0-34-1-3-4-7-32-8-36-9-37-10-12-39-38-14-33-0
Cost: 1077
0-34-1-3-4-7-32-8-36-9-37-10-12-39-38-14-33-0
0-31-29-26-25-24-42-22-40-20-41-21-23-27-43-44-30-0
Cost: 1077
0-34-1-3-4-7-32-8-36-9-37-10-12-39-38-14-33-0
0-31-46-29-26-25-24-42-22-20-40-41-21-23-27-43-30-0
Cost: 1077
0-31-29-26-25-24-42-21-22-20-40-41-23-27-43-30-0
0-34-1-3-4-7-32-8-36-37-9-10-12-39-38-14-55-33-0
Cost: 1077
0-34-1-3-4-7-32-8-36-9-37-12-39-38-10-14-33-0
0-31-29-26-25-24-42-21-22-20-40-41-23-27-49-43-30-0
Cost: 1077
0-34-1-3-4-7-32-8-36-9-37-12-39-38-10-14-33-0
0-31-29-26-25-24-42-21-22-20-40-41-23-27-49-43-30-0
Cost: 1077
0-34-1-3-4-7-32-8-36-9-37-12-39-38-10-14-33-0
0-31-29-26-25-24-42-22-20-40-41-21-23-27-43-44-30-0
Cost: 1077
0-31-29-26-25-24-42-21-22-20-40-41-23-27-43-30-0
0-34-1-3-4-7-32-8-36-37-9-10-12-39-38-14-55-33-0
Cost: 1077
0-31-29-26-25-24-42-21-22-20-40-41-23-27-43-30-0
0-34-1-3-4-7-32-8-36-37-9-10-12-39-38-14-55-33-0
Cost: 1077
0-31-29-26-25-24-42-21-22-20-40-41-23-27-43-30-0
0-34-1-3-4-7-32-8-36-37-9-10-12-39-38-14-55-33-0
Cost: 1077
0-31-29-26-25-24-42-21-22-20-40-41-23-27-43-30-0
0-34-1-3-4-7-32-8-36-37-9-10-12-39-38-14-55-33-0
Cost: 1077
0-34-1-3-4-7-32-8-36-37-9-10-12-39-38-14-33-0
0-31-29-26-25-24-42-21-22-40-20-41-23-27-43-44-30-0
Cost: 1077
0-34-1-3-4-7-32-8-36-9-37-10-12-39-38-14-33-0
0-31-29-26-25-24-42-22-20-40-41-21-23-27-43-44-30-0
Cost: 1077
0-34-1-3-4-7-32-8-36-9-37-12-39-38-10-14-33-0
0-31-29-26-25-24-42-21-22-40-20-41-23-27-43-30-46-0
Cost: 1077
0-34-1-3-4-7-32-8-36-9-37-12-39-38-10-14-33-0
0-31-29-26-25-24-42-21-22-40-20-41-23-27-43-30-46-0
Cost: 1077
0-34-1-3-4-7-32-8-36-37-9-12-39-38-10-14-33-0
0-31-29-26-25-24-42-21-22-20-40-41-23-54-27-43-30-0
Cost: 1077
0-34-1-3-4-7-32-8-36-37-9-12-39-38-10-14-33-0
0-31-29-26-25-24-42-21-22-20-40-41-23-54-27-43-30-0
Cost: 1077
0-31-46-29-26-25-24-42-22-40-20-41-21-23-27-43-30-0
0-34-1-3-4-7-32-8-36-9-37-10-12-39-38-14-33-0
Cost: 1077
0-34-1-3-4-7-32-8-36-37-9-12-39-38-10-14-33-0
0-31-29-26-25-24-42-21-22-20-40-41-23-54-27-43-30-0
Cost: 1077
0-34-1-3-4-7-32-8-36-9-37-10-12-39-38-14-33-0
0-31-29-26-25-24-42-22-20-40-41-21-23-27-43-44-30-0
Cost: 1077
0-34-1-3-4-7-32-8-36-9-37-12-39-38-10-14-33-0
0-31-29-26-25-24-42-21-22-40-20-41-23-27-43-30-46-0
Cost: 1077
0-34-1-3-4-7-32-8-36-9-37-12-39-38-10-14-33-0
0-31-29-26-25-24-42-21-22-40-20-41-23-27-43-30-46-0
Cost: 1077
0-34-1-3-4-7-32-8-36-9-37-12-39-38-10-14-33-0
0-31-29-26-25-24-42-21-22-40-20-41-23-27-43-44-30-0
Cost: 1077
0-34-1-3-4-7-32-8-36-9-37-12-39-38-10-14-33-0
0-31-29-26-25-24-42-21-22-40-20-41-23-54-27-43-30-0
Cost: 1077
0-31-29-26-25-24-42-21-22-40-20-41-23-27-43-30-0
0-34-1-3-4-7-32-8-36-37-9-12-39-38-10-14-55-33-0
Cost: 1077
0-31-29-26-25-24-42-21-22-20-40-41-23-27-43-30-0
0-34-1-3-4-7-32-8-36-37-9-10-12-39-38-14-55-33-0
Cost: 1077
0-31-29-26-25-24-42-21-22-40-20-41-23-27-43-30-0
0-34-1-3-4-7-32-8-36-37-9-51-12-39-38-10-14-33-0
